NAME : sensor_network_100.1000.tour
COMMENT : Length = 1000
COMMENT : Found by LKH-3 [Keld Helsgaun] Mon May 26 12:32:38 2025
TYPE : TOUR
DIMENSION : 100
TOUR_SECTION
62
61
51
41
31
21
22
32
42
43
33
34
44
45
35
25
15
14
24
23
13
12
11
1
2
3
4
5
6
16
17
7
8
9
10
20
30
29
19
18
28
38
37
27
26
36
46
47
48
49
39
40
50
60
59
69
70
80
90
100
99
89
79
78
77
87
88
98
97
96
86
76
75
74
84
85
95
94
93
92
91
81
71
72
82
83
73
63
64
65
66
67
68
58
57
56
55
54
53
52
-1
EOF
